c instance by G2
c solution = 01111000100
c Known solution cost is 357 
p cnf 11 30
w 52 3 19 17 24 91 37 10 3 99 2
-4 3 6 0
-8 1 -3 0
1 -4 -7 0
-5 6 -7 0
-7 5 -10 0
-7 -6 -1 0
3 -5 -7 0
-3 -9 4 0
6 -11 1 0
-2 5 10 0
-1 -11 4 0
7 -1 8 0
10 9 6 0
-1 3 -6 0
8 -7 -2 0
-10 5 7 0
4 1 -2 0
-3 -10 -7 0
-9 -5 2 0
1 -8 10 0
7 11 -10 0
-11 3 -4 0
-4 -6 8 0
1 2 -9 0
-1 -5 2 0
3 -4 -9 0
11 7 4 0
5 11 3 0
10 -8 -11 0
9 -2 -8 0
